35995
1 1 1 0 1 0 0 1 1 0 1 0 0 0 0 0 1 0 0 0 0 0 0 0 0 1 0 1 0 1 
27 29 2 27 2 25 2 27 27 27 4 29 10 1 29 7 1 10 27 1 27 16 2 0 10 7 27 8 29 2 29 4 4 1 27 29 10 8 0 1 7 8 29 29 8 4 1 2 29 10 1 16 0 2 8 7 25 8 7 25 29 0 7 8 8 7 0 1 7 25 7 25 7 8 10 10 10 2 8 1 10 1 8 25 4 10 29 2 27 25 27 29 25 25 0 8 7 7 0 29 7 1 25 7 4 0 4 27 27 1 29 4 27 7 7 8 27 25 1 8 8 7 1 4 29 1 2 7 8 0 29 2 25 10 8 8 1 8 29 10 7 27 7 25 25 1 2 2 27 25 0 0 1 0 8 27 2 1 1 1 1 27 10 0 1 27 1 4 8 1 1 8 29 8 4 0 0 10 29 10 1 1 0 29 25 8 27 1 0 2 2 1 29 29 7 7 7 1 10 29 